NAME: Tnm79
COMMENT: Recalculated optimal tour for Tnm79, using concorde got a tour of length 1006535.0
TYPE: TOUR
DIMENSION: 79
TOUR_SECTION:
1
59
62
4
7
10
13
16
19
22
25
65
68
71
74
77
76
79
78
75
72
69
66
28
31
34
37
40
43
46
49
52
55
2
60
63
5
8
11
14
17
20
23
26
29
32
35
38
41
44
47
50
58
53
56
3
6
9
61
64
67
70
73
12
15
18
21
24
27
30
33
36
39
42
45
48
51
54
57 
-1
EOF
